9940
4861
5962
3760
2539
5644
6805
2741
1912
6597
2335
7310
6799
2079
7374
1667
6488
7793
10082
6597
9102
9268
7988
8511
4056
6785
6579
3938
8685
5514
2017
8207
4691
859
3382
6646
5430
1870
6179
5861
4038
2536
9345
6438
2849
1385
2955
8046
6993
8610
